----------
 estado  1
----------
----------------------------------------------------
 pun        desX        desY        reaX        reaY
----------------------------------------------------
   1  0,0000e+00  0,0000e+00  7,1291e+02  9,0000e+03
   2 -3,4422e-06 -8,2869e-06                        
   3 -2,7293e-06  7,1290e-07                        
   4  0,0000e+00  0,0000e+00 -1,7129e+03  1,0000e+03
------------------------------------------
 lín punIni punFin         axi         nor
------------------------------------------
   1      1      2 -8,2871e+03 -1,7403e+06
   2      2      3  7,1291e+02  1,4971e+05
   3      3      4  7,1291e+02  1,4971e+05
   4      4      1  0,0000e+00  0,0000e+00
   5      2      4 -2,4224e+03 -5,0870e+05
   6      3      1 -1,0082e+03 -2,1172e+05
-------------------------------------
 tensión equivalente von Mises máxima
-------------------------------------
  1,7403e+06
